NAME 
ROWS
 N  OBJ
 L  R0      
 L  R1      
 L  R2      
 E  R3      
 E  R4      
 E  R5      
 E  R6      
 E  R7      
 E  R8      
 E  R9      
 E  R10     
 E  R11     
 E  R12     
 E  R13     
 E  R14     
 E  R15     
 E  R16     
 E  R17     
 E  R18     
 E  R19     
 E  R20     
 E  R21     
 E  R22     
 E  R23     
 E  R24     
 E  R25     
 E  R26     
 E  R27     
COLUMNS
    MARKER    'MARKER'                 'INTORG'
    I0(14)    OBJ       -62
    I0(14)    R0        -98
    I0(14)    R1        -21
    I0(14)    R2        64
    I0(14)    R3        4
    I0(14)    R4        2
    I0(14)    R6        11
    I0(14)    R7        18
    I0(14)    R8        18
    I0(14)    R9        9
    I0(14)    R11       9
    I0(14)    R12       12
    I0(14)    R13       2
    I0(14)    R17       12
    I0(14)    R27       1
    I1(15)    OBJ       195
    I1(15)    R0        194
    I1(15)    R1        46
    I1(15)    R2        -57
    I1(15)    R3        11
    I1(15)    R4        10
    I1(15)    R6        1
    I1(15)    R8        17
    I1(15)    R9        3
    I1(15)    R10       12
    I1(15)    R11       3
    I1(15)    R14       4
    I1(15)    R15       13
    I1(15)    R16       7
    I1(15)    R17       4
    I1(15)    R27       1
    I2(11)    OBJ       -24
    I2(11)    R0        140
    I2(11)    R1        100
    I2(11)    R2        28
    I2(11)    R6        13
    I2(11)    R8        5
    I2(11)    R9        9
    I2(11)    R13       4
    I2(11)    R15       9
    I2(11)    R16       -1
    I2(11)    R17       10
    I2(11)    R27       1
    I3(15)    OBJ       190
    I3(15)    R0        -33
    I3(15)    R1        -64
    I3(15)    R2        143
    I3(15)    R3        18
    I3(15)    R4        1
    I3(15)    R5        1
    I3(15)    R6        11
    I3(15)    R7        1
    I3(15)    R10       -1
    I3(15)    R11       11
    I3(15)    R12       18
    I3(15)    R15       17
    I3(15)    R16       14
    I3(15)    R17       17
    I3(15)    R27       1
    I4(12)    OBJ       37
    I4(12)    R0        187
    I4(12)    R1        19
    I4(12)    R2        119
    I4(12)    R3        14
    I4(12)    R7        18
    I4(12)    R8        7
    I4(12)    R10       9
    I4(12)    R11       8
    I4(12)    R14       1
    I4(12)    R15       19
    I4(12)    R16       8
    I4(12)    R27       1
    I5(14)    OBJ       -141
    I5(14)    R0        123
    I5(14)    R1        22
    I5(14)    R2        -127
    I5(14)    R3        9
    I5(14)    R5        3
    I5(14)    R6        18
    I5(14)    R8        14
    I5(14)    R9        9
    I5(14)    R10       18
    I5(14)    R12       -1
    I5(14)    R14       8
    I5(14)    R15       9
    I5(14)    R16       8
    I5(14)    R27       1
    I6(14)    OBJ       162
    I6(14)    R0        -86
    I6(14)    R1        44
    I6(14)    R2        121
    I6(14)    R3        4
    I6(14)    R4        15
    I6(14)    R5        3
    I6(14)    R8        16
    I6(14)    R9        5
    I6(14)    R10       11
    I6(14)    R13       6
    I6(14)    R14       10
    I6(14)    R15       5
    I6(14)    R16       10
    I6(14)    R27       1
    I7(14)    OBJ       26
    I7(14)    R0        119
    I7(14)    R1        84
    I7(14)    R2        -136
    I7(14)    R5        13
    I7(14)    R6        3
    I7(14)    R7        19
    I7(14)    R8        5
    I7(14)    R10       19
    I7(14)    R11       15
    I7(14)    R12       12
    I7(14)    R13       19
    I7(14)    R14       17
    I7(14)    R15       13
    I7(14)    R27       1
    I8(13)    OBJ       160
    I8(13)    R0        -75
    I8(13)    R1        -148
    I8(13)    R2        39
    I8(13)    R3        16
    I8(13)    R4        12
    I8(13)    R5        -1
    I8(13)    R6        10
    I8(13)    R7        9
    I8(13)    R9        18
    I8(13)    R10       12
    I8(13)    R11       6
    I8(13)    R12       14
    I8(13)    R27       1
    I9(14)    OBJ       -156
    I9(14)    R0        84
    I9(14)    R1        96
    I9(14)    R2        190
    I9(14)    R3        4
    I9(14)    R4        2
    I9(14)    R7        7
    I9(14)    R8        16
    I9(14)    R9        12
    I9(14)    R10       12
    I9(14)    R11       -1
    I9(14)    R12       14
    I9(14)    R13       10
    I9(14)    R14       13
    I9(14)    R27       1
    I10(13)   OBJ       -12
    I10(13)   R0        -85
    I10(13)   R1        179
    I10(13)   R2        -61
    I10(13)   R3        2
    I10(13)   R5        14
    I10(13)   R6        4
    I10(13)   R7        14
    I10(13)   R11       8
    I10(13)   R12       12
    I10(13)   R15       1
    I10(13)   R16       14
    I10(13)   R17       7
    I10(13)   R27       1
    I11(11)   OBJ       -11
    I11(11)   R0        -50
    I11(11)   R1        33
    I11(11)   R2        59
    I11(11)   R3        12
    I11(11)   R5        9
    I11(11)   R7        16
    I11(11)   R8        19
    I11(11)   R9        14
    I11(11)   R12       4
    I11(11)   R17       6
    I11(11)   R27       1
    I12(14)   OBJ       -27
    I12(14)   R0        -135
    I12(14)   R1        -38
    I12(14)   R2        196
    I12(14)   R3        7
    I12(14)   R5        16
    I12(14)   R6        7
    I12(14)   R7        -1
    I12(14)   R8        19
    I12(14)   R9        13
    I12(14)   R12       6
    I12(14)   R13       7
    I12(14)   R15       9
    I12(14)   R17       17
    I12(14)   R27       1
    I13(12)   OBJ       52
    I13(12)   R0        -132
    I13(12)   R1        -82
    I13(12)   R2        -194
    I13(12)   R3        10
    I13(12)   R4        6
    I13(12)   R6        8
    I13(12)   R8        5
    I13(12)   R10       16
    I13(12)   R13       14
    I13(12)   R14       9
    I13(12)   R16       13
    I13(12)   R27       1
    I14(12)   OBJ       122
    I14(12)   R0        190
    I14(12)   R1        7
    I14(12)   R2        -200
    I14(12)   R3        10
    I14(12)   R4        8
    I14(12)   R7        19
    I14(12)   R8        19
    I14(12)   R10       13
    I14(12)   R13       2
    I14(12)   R14       2
    I14(12)   R16       -1
    I14(12)   R27       1
    MARKER    'MARKER'                 'INTEND'
    C15(19)   OBJ       3
    C15(19)   R1        3
    C15(19)   R2        -10
    C15(19)   R4        3
    C15(19)   R6        10
    C15(19)   R7        15
    C15(19)   R8        1
    C15(19)   R10       2
    C15(19)   R13       17
    C15(19)   R14       17
    C15(19)   R16       16
    C15(19)   R18       -1
    C15(19)   R19       3
    C15(19)   R20       -1
    C15(19)   R21       8
    C15(19)   R22       9
    C15(19)   R23       15
    C15(19)   R24       -1
    C15(19)   R25       15
    C15(19)   R26       17
    C16(18)   OBJ       -8
    C16(18)   R0        5
    C16(18)   R1        5
    C16(18)   R2        5
    C16(18)   R4        18
    C16(18)   R5        7
    C16(18)   R8        19
    C16(18)   R10       7
    C16(18)   R12       7
    C16(18)   R13       15
    C16(18)   R15       9
    C16(18)   R16       6
    C16(18)   R17       19
    C16(18)   R19       7
    C16(18)   R20       9
    C16(18)   R21       10
    C16(18)   R22       8
    C16(18)   R24       2
    C16(18)   R25       3
    C17(18)   OBJ       8
    C17(18)   R0        3
    C17(18)   R1        -5
    C17(18)   R3        -1
    C17(18)   R4        6
    C17(18)   R5        19
    C17(18)   R6        -1
    C17(18)   R7        16
    C17(18)   R8        6
    C17(18)   R10       16
    C17(18)   R12       18
    C17(18)   R13       15
    C17(18)   R15       2
    C17(18)   R17       15
    C17(18)   R18       -1
    C17(18)   R19       6
    C17(18)   R22       6
    C17(18)   R23       -1
    C17(18)   R25       3
    C18(19)   OBJ       -2
    C18(19)   R0        -6
    C18(19)   R1        7
    C18(19)   R2        -10
    C18(19)   R3        17
    C18(19)   R4        7
    C18(19)   R5        17
    C18(19)   R7        8
    C18(19)   R8        15
    C18(19)   R10       10
    C18(19)   R12       10
    C18(19)   R14       4
    C18(19)   R15       -1
    C18(19)   R18       10
    C18(19)   R20       9
    C18(19)   R21       3
    C18(19)   R22       -1
    C18(19)   R24       10
    C18(19)   R25       16
    C18(19)   R26       19
    C19(18)   OBJ       6
    C19(18)   R0        -1
    C19(18)   R1        1
    C19(18)   R2        -8
    C19(18)   R3        15
    C19(18)   R4        6
    C19(18)   R5        10
    C19(18)   R8        10
    C19(18)   R9        10
    C19(18)   R10       19
    C19(18)   R12       10
    C19(18)   R14       1
    C19(18)   R15       18
    C19(18)   R18       5
    C19(18)   R19       17
    C19(18)   R21       11
    C19(18)   R22       18
    C19(18)   R24       10
    C19(18)   R25       8
    C20(15)   OBJ       -4
    C20(15)   R1        8
    C20(15)   R2        -1
    C20(15)   R4        16
    C20(15)   R5        14
    C20(15)   R7        3
    C20(15)   R9        18
    C20(15)   R11       3
    C20(15)   R12       3
    C20(15)   R13       9
    C20(15)   R16       10
    C20(15)   R21       1
    C20(15)   R23       15
    C20(15)   R24       7
    C20(15)   R25       10
    C20(15)   R26       19
    C21(16)   OBJ       9
    C21(16)   R0        4
    C21(16)   R1        -10
    C21(16)   R2        -1
    C21(16)   R3        18
    C21(16)   R4        9
    C21(16)   R6        10
    C21(16)   R9        5
    C21(16)   R11       18
    C21(16)   R13       13
    C21(16)   R15       3
    C21(16)   R17       9
    C21(16)   R18       13
    C21(16)   R20       3
    C21(16)   R21       9
    C21(16)   R23       16
    C21(16)   R26       11
    C22(20)   R0        1
    C22(20)   R1        -10
    C22(20)   R2        1
    C22(20)   R3        16
    C22(20)   R4        9
    C22(20)   R5        11
    C22(20)   R7        19
    C22(20)   R8        11
    C22(20)   R10       16
    C22(20)   R12       10
    C22(20)   R13       12
    C22(20)   R14       10
    C22(20)   R16       12
    C22(20)   R17       16
    C22(20)   R20       1
    C22(20)   R21       14
    C22(20)   R22       9
    C22(20)   R23       10
    C22(20)   R24       1
    C22(20)   R25       10
    C23(23)   R0        1
    C23(23)   R1        5
    C23(23)   R2        1
    C23(23)   R3        19
    C23(23)   R4        14
    C23(23)   R5        7
    C23(23)   R6        9
    C23(23)   R7        -1
    C23(23)   R8        13
    C23(23)   R9        14
    C23(23)   R10       7
    C23(23)   R11       3
    C23(23)   R12       17
    C23(23)   R13       7
    C23(23)   R14       17
    C23(23)   R15       11
    C23(23)   R16       9
    C23(23)   R17       -1
    C23(23)   R18       5
    C23(23)   R21       4
    C23(23)   R22       5
    C23(23)   R23       12
    C23(23)   R25       11
    C24(20)   OBJ       -3
    C24(20)   R0        -4
    C24(20)   R1        -3
    C24(20)   R2        2
    C24(20)   R3        4
    C24(20)   R4        5
    C24(20)   R7        1
    C24(20)   R8        3
    C24(20)   R9        13
    C24(20)   R10       1
    C24(20)   R11       6
    C24(20)   R13       8
    C24(20)   R14       16
    C24(20)   R15       16
    C24(20)   R16       15
    C24(20)   R19       3
    C24(20)   R21       1
    C24(20)   R22       5
    C24(20)   R23       17
    C24(20)   R24       2
    C24(20)   R26       2
    C25(1)    R3        1
    C26(1)    R4        1
    C27(1)    R5        1
    C28(1)    R6        1
    C29(1)    R7        1
    C30(1)    R8        1
    C31(1)    R9        1
    C32(1)    R10       1
    C33(1)    R11       1
    C34(1)    R12       1
    C35(1)    R13       1
    C36(1)    R14       1
    C37(1)    R15       1
    C38(1)    R16       1
    C39(1)    R17       1
    C40(1)    R18       1
    C41(1)    R19       1
    C42(1)    R20       1
    C43(1)    R21       1
    C44(1)    R22       1
    C45(1)    R23       1
    C46(1)    R24       1
    C47(1)    R25       1
    C48(1)    R26       1
    C49(1)    R27       1
RHS
    RHS1      R0        5.5610526315789480e+02
    RHS1      R1        3.4343859649122811e+02
    RHS1      R2        1.5543859649122811e+02
    RHS1      R3        78
    RHS1      R4        82
    RHS1      R5        66
    RHS1      R6        75
    RHS1      R7        58
    RHS1      R8        73
    RHS1      R9        63
    RHS1      R10       80
    RHS1      R11       89
    RHS1      R12       89
    RHS1      R13       54
    RHS1      R14       68
    RHS1      R15       88
    RHS1      R16       59
    RHS1      R17       52
    RHS1      R18       62
    RHS1      R19       94
    RHS1      R20       51
    RHS1      R21       66
    RHS1      R22       58
    RHS1      R23       98
    RHS1      R24       84
    RHS1      R25       79
    RHS1      R26       55
    RHS1      R27       5
BOUNDS
 UP BND1      I0(14)    2
 UP BND1      I1(15)    2
 UP BND1      I2(11)    2
 UP BND1      I3(15)    2
 UP BND1      I4(12)    2
 UP BND1      I5(14)    2
 UP BND1      I6(14)    2
 UP BND1      I7(14)    2
 UP BND1      I8(13)    2
 UP BND1      I9(14)    2
 UP BND1      I10(13)   2
 UP BND1      I11(11)   2
 UP BND1      I12(14)   2
 UP BND1      I13(12)   2
 UP BND1      I14(12)   2
ENDATA
